data/solutions/recovery/degenerate/intermediate/flexible/degenerate_intermediate_instance23/97.sol
Elapsed time: 100.12
Upper bound: 226617592.0
Planning weighted value: 9.04231368931e+11
C[0]=226617592.0
C[1]=226113053.0
C[2]=226107569.0
C[3]=226082686.0
C[4]=225805948.0
C[5]=225805533.0
C[6]=225749959.0
C[7]=225336173.0
C[8]=225205051.0
C[9]=225201923.0
C[10]=224380413.0
C[11]=0.0
y[0]=5
y[1]=0
y[2]=9
y[3]=10
y[4]=7
y[5]=4
y[6]=10
y[7]=6
y[8]=1
y[9]=7
y[10]=3
y[11]=6
y[12]=1
y[13]=7
y[14]=1
y[15]=4
y[16]=5
y[17]=2
y[18]=6
y[19]=1
y[20]=8
y[21]=9
y[22]=1
y[23]=3
y[24]=6
y[25]=5
y[26]=10
y[27]=1
y[28]=3
y[29]=8
y[30]=0
y[31]=10
y[32]=2
y[33]=7
y[34]=5
y[35]=0
y[36]=0
y[37]=2
y[38]=7
y[39]=0
y[40]=4
y[41]=4
y[42]=9
y[43]=5
y[44]=2
y[45]=5
y[46]=2
y[47]=7
y[48]=9
y[49]=0
y[50]=0
y[51]=2
y[52]=6
y[53]=9
y[54]=4
y[55]=5
y[56]=1
y[57]=3
y[58]=1
y[59]=9
y[60]=0
y[61]=8
y[62]=8
y[63]=3
y[64]=2
y[65]=3
y[66]=10
y[67]=5
y[68]=8
y[69]=10
y[70]=7
y[71]=7
y[72]=9
y[73]=6
y[74]=4
y[75]=7
y[76]=2
y[77]=10
