data/solutions/recovery/degenerate/intermediate/flexible/degenerate_intermediate_instance23/97.log

Log started (V12.6.3.0) Sat Apr 21 17:09:24 2018

New value for default parallel thread count: 1

Problem '/tmp/tmpzclOuk.pyomo.lp' read.
Read time = 0.02 sec. (0.85 ticks)

Problem name         : /tmp/tmpzclOuk.pyomo.lp
Objective sense      : Minimize
Variables            :     950  [Nneg: 1,  Binary: 936,  General Integer: 13]
Objective nonzeros   :       1
Linear constraints   :     182  [Less: 90,  Equal: 92]
  Nonzeros           :   61117
  RHS nonzeros       :     157

Variables            : Min LB: 0.000000         Max UB: 1.000000       
Objective nonzeros   : Min   : 1.000000         Max   : 1.000000       
Linear constraints   :
  Nonzeros           : Min   : 1.000000         Max   : 6.145599e+07   
  RHS nonzeros       : Min   : 1.000000         Max   : 8.000000       
Tried aggregator 2 times.
MIP Presolve eliminated 81 rows and 140 columns.
Aggregator did 6 substitutions.
Reduced MIP has 95 rows, 804 columns, and 2247 nonzeros.
Reduced MIP has 792 binaries, 12 generals, 0 SOSs, and 0 indicators.
Presolve time = 0.01 sec. (11.04 ticks)
Found incumbent of value 7.9229787e+08 after 0.01 sec. (12.59 ticks)
Probing time = 0.00 sec. (1.59 ticks)
Tried aggregator 1 time.
Reduced MIP has 95 rows, 804 columns, and 2247 nonzeros.
Reduced MIP has 792 binaries, 12 generals, 0 SOSs, and 0 indicators.
Presolve time = 0.00 sec. (1.15 ticks)
Probing time = 0.00 sec. (1.59 ticks)
Clique table members: 72.
MIP emphasis: balance optimality and feasibility.
MIP search method: dynamic search.
Parallel mode: none, using 1 thread.
Root relaxation solution time = 0.00 sec. (1.57 ticks)

        Nodes                                         Cuts/
   Node  Left     Objective  IInf  Best Integer    Best Bound    ItCnt     Gap

*     0+    0                       7.92298e+08        0.0000           100.00%
      0     0   2.25673e+08    30   7.92298e+08   2.25673e+08      142   71.52%
      0     0   2.25673e+08    22   7.92298e+08      Fract: 6      165   71.52%
      0     0   2.25673e+08    29   7.92298e+08      Fract: 7      195   71.52%
*     0+    0                       2.62848e+08   2.25673e+08            14.14%
*     0+    0                       2.54596e+08   2.25673e+08            11.36%
*     0+    0                       2.51454e+08   2.25673e+08            10.25%
      0     2   2.25673e+08    16   2.51454e+08   2.25673e+08      195   10.25%
Elapsed time = 0.05 sec. (55.49 ticks, tree = 0.01 MB, solutions = 4)
*    20+   20                       2.46517e+08   2.25673e+08             8.46%
*    30+   30                       2.42760e+08   2.25673e+08             7.04%
*   130+  115                       2.38511e+08   2.25673e+08             5.38%
*   130+  115                       2.37368e+08   2.25673e+08             4.93%
*   130+  115                       2.36308e+08   2.25673e+08             4.50%
*   130+  115                       2.34833e+08   2.25673e+08             3.90%
*   190+  143                       2.34345e+08   2.25673e+08             3.70%
*   499+  446                       2.34292e+08   2.25673e+08             3.68%
*   500+  447                       2.33933e+08   2.25673e+08             3.53%
    500   449   2.25958e+08    31   2.33933e+08   2.25673e+08     2058    3.53%
*   501+  298                       2.33617e+08   2.25673e+08             3.40%
*   501+  198                       2.33576e+08   2.25673e+08             3.38%
*   501+  132                       2.32308e+08   2.25673e+08             2.86%
*   501+   88                       2.31659e+08   2.25673e+08             2.58%
*   501+   58                       2.30849e+08   2.25673e+08             2.24%
    501    59   2.25673e+08    22   2.30849e+08   2.25673e+08     2463    2.24%
    502    60   2.25673e+08    24   2.30849e+08   2.25673e+08     2468    2.24%
    503    61   2.25673e+08    24   2.30849e+08   2.25673e+08     2473    2.24%
    504    62   2.25673e+08    24   2.30849e+08   2.25673e+08     2475    2.24%
    505    62   2.25673e+08    27   2.30849e+08   2.25673e+08     2478    2.24%
    506    63   2.25673e+08    25   2.30849e+08   2.25673e+08     2481    2.24%
    507    64   2.25673e+08    24   2.30849e+08   2.25673e+08     2487    2.24%
    508    64   2.25673e+08    21   2.30849e+08   2.25673e+08     2499    2.24%
*   801+  180                       2.30526e+08   2.25673e+08             2.10%
*   801+  180                       2.30430e+08   2.25673e+08             2.06%
*   801+  180                       2.30363e+08   2.25673e+08             2.04%
*   801+  173                       2.29263e+08   2.25673e+08             1.57%
*   801+  169                       2.27830e+08   2.25673e+08             0.95%
    931   240   2.25673e+08    17   2.27830e+08   2.25673e+08     4397    0.95%
Elapsed time = 0.83 sec. (1009.41 ticks, tree = 0.13 MB, solutions = 23)
*  1001+  278                       2.27233e+08   2.25673e+08             0.69%
*  1101+  331                       2.27174e+08   2.25673e+08             0.66%
   2431  1254   2.25673e+08    23   2.27174e+08   2.25673e+08    10339    0.66%
   2432  1255   2.25673e+08    22   2.27174e+08   2.25673e+08    10340    0.66%
   2433  1256   2.25673e+08    23   2.27174e+08   2.25673e+08    10343    0.66%
   2434  1257   2.25673e+08    23   2.27174e+08   2.25673e+08    10344    0.66%
   2435  1258   2.25673e+08    22   2.27174e+08   2.25673e+08    10347    0.66%
   2436  1259   2.25673e+08    24   2.27174e+08   2.25673e+08    10349    0.66%
   2437  1260   2.25673e+08    24   2.27174e+08   2.25673e+08    10350    0.66%
   2438  1261   2.25673e+08    22   2.27174e+08   2.25673e+08    10357    0.66%
   2439  1262   2.26016e+08    31   2.27174e+08   2.25673e+08    10393    0.66%
   2440  1263   2.26158e+08    28   2.27174e+08   2.25673e+08    10395    0.66%
Elapsed time = 1.65 sec. (1966.29 ticks, tree = 0.78 MB, solutions = 25)
   5781  3556   2.25838e+08    31   2.27174e+08   2.25673e+08    28246    0.66%
   5782  3557   2.26780e+08    26   2.27174e+08   2.25673e+08    28258    0.66%
   5783  3556        cutoff         2.27174e+08   2.25673e+08    28260    0.66%
   5784  3555        cutoff         2.27174e+08   2.25673e+08    28273    0.66%
   5785  3556   2.25673e+08    23   2.27174e+08   2.25673e+08    28298    0.66%
   5786  3556   2.25673e+08    25   2.27174e+08   2.25673e+08    28301    0.66%
   5787  3557   2.25673e+08    25   2.27174e+08   2.25673e+08    28309    0.66%
   5788  3558   2.25673e+08    23   2.27174e+08   2.25673e+08    28317    0.66%
   5789  3559   2.25673e+08    21   2.27174e+08   2.25673e+08    28326    0.66%
   5790  3560   2.25673e+08    23   2.27174e+08   2.25673e+08    28332    0.66%
Elapsed time = 2.40 sec. (2927.68 ticks, tree = 2.14 MB, solutions = 25)
   8871  5843        cutoff         2.27174e+08   2.25673e+08    51047    0.66%
   8872  5842        cutoff         2.27174e+08   2.25673e+08    51108    0.66%
   8873  5841        cutoff         2.27174e+08   2.25673e+08    51120    0.66%
   8874  5840        cutoff         2.27174e+08   2.25673e+08    51130    0.66%
   8875  5839        cutoff         2.27174e+08   2.25673e+08    51134    0.66%
   8876  5838        cutoff         2.27174e+08   2.25673e+08    51145    0.66%
   8877  5837        cutoff         2.27174e+08   2.25673e+08    51159    0.66%
   8878  5838   2.25673e+08    22   2.27174e+08   2.25673e+08    51180    0.66%
   8879  5839   2.25673e+08    20   2.27174e+08   2.25673e+08    51181    0.66%
   8880  5840   2.25673e+08    20   2.27174e+08   2.25673e+08    51182    0.66%
Elapsed time = 3.14 sec. (3890.51 ticks, tree = 3.57 MB, solutions = 25)
  10461  6796   2.25673e+08    26   2.27174e+08   2.25673e+08    71865    0.66%
  10462  6797   2.25781e+08    38   2.27174e+08   2.25673e+08    71963    0.66%
  10463  6798   2.25673e+08    21   2.27174e+08   2.25673e+08    72013    0.66%
  10464  6799   2.26018e+08    27   2.27174e+08   2.25673e+08    72127    0.66%
  10465  6798        cutoff         2.27174e+08   2.25673e+08    72145    0.66%
  10466  6797        cutoff         2.27174e+08   2.25673e+08    72149    0.66%
  10467  6796        cutoff         2.27174e+08   2.25673e+08    72181    0.66%
  10468  6796   2.26517e+08    36   2.27174e+08   2.25673e+08    72342    0.66%
  10469  6796   2.26587e+08    33   2.27174e+08   2.25673e+08    72356    0.66%
  10470  6796   2.26587e+08    33   2.27174e+08   2.25673e+08    72357    0.66%
Elapsed time = 4.14 sec. (5067.45 ticks, tree = 4.13 MB, solutions = 25)
  11911  7802   2.26354e+08    36   2.27174e+08   2.25673e+08    95327    0.66%
  11912  7803   2.26354e+08    36   2.27174e+08   2.25673e+08    95336    0.66%
  11913  7804   2.26358e+08    46   2.27174e+08   2.25673e+08    95341    0.66%
  11914  7805   2.26360e+08    44   2.27174e+08   2.25673e+08    95342    0.66%
  11915  7806   2.26360e+08    44   2.27174e+08   2.25673e+08    95343    0.66%
  11916  7807   2.26360e+08    44   2.27174e+08   2.25673e+08    95345    0.66%
  11917  7808   2.26360e+08    44   2.27174e+08   2.25673e+08    95346    0.66%
  11918  7809   2.26360e+08    44   2.27174e+08   2.25673e+08    95347    0.66%
  11919  7810   2.26360e+08    40   2.27174e+08   2.25673e+08    95348    0.66%
  11920  7811   2.26360e+08    42   2.27174e+08   2.25673e+08    95357    0.66%
Elapsed time = 4.85 sec. (6023.54 ticks, tree = 4.72 MB, solutions = 25)
  13489  8927   2.25673e+08    35   2.27174e+08   2.25673e+08   119842    0.66%
  13490  8928   2.25673e+08    33   2.27174e+08   2.25673e+08   119845    0.66%
  13491  8929   2.25673e+08    28   2.27174e+08   2.25673e+08   119850    0.66%
  13492  8930   2.25673e+08    28   2.27174e+08   2.25673e+08   119851    0.66%
  13493  8931   2.25673e+08    27   2.27174e+08   2.25673e+08   119852    0.66%
  13494  8932   2.25673e+08    30   2.27174e+08   2.25673e+08   119854    0.66%
  13495  8933   2.25673e+08    31   2.27174e+08   2.25673e+08   119863    0.66%
  13496  8934   2.25673e+08    29   2.27174e+08   2.25673e+08   119865    0.66%
  13497  8935   2.25673e+08    37   2.27174e+08   2.25673e+08   119878    0.66%
  13498  8936   2.25673e+08    28   2.27174e+08   2.25673e+08   119893    0.66%
Elapsed time = 5.55 sec. (6980.00 ticks, tree = 5.64 MB, solutions = 25)
  15061 10027   2.25899e+08    37   2.27174e+08   2.25673e+08   143290    0.66%
  15062 10028   2.25902e+08    40   2.27174e+08   2.25673e+08   143291    0.66%
  15063 10029   2.25909e+08    37   2.27174e+08   2.25673e+08   143292    0.66%
  15064 10030   2.25922e+08    37   2.27174e+08   2.25673e+08   143296    0.66%
  15065 10031   2.25946e+08    44   2.27174e+08   2.25673e+08   143310    0.66%
  15066 10032   2.25947e+08    44   2.27174e+08   2.25673e+08   143311    0.66%
  15067 10033   2.26665e+08    46   2.27174e+08   2.25673e+08   143338    0.66%
  15068 10034   2.26665e+08    45   2.27174e+08   2.25673e+08   143341    0.66%
  15069 10035   2.26715e+08    44   2.27174e+08   2.25673e+08   143348    0.66%
  15070 10036   2.26782e+08    45   2.27174e+08   2.25673e+08   143350    0.66%
Elapsed time = 6.25 sec. (7935.72 ticks, tree = 6.28 MB, solutions = 25)
  16211 10743   2.25673e+08    32   2.27174e+08   2.25673e+08   167544    0.66%
  16212 10744   2.25673e+08    32   2.27174e+08   2.25673e+08   167545    0.66%
  16213 10745   2.25673e+08    32   2.27174e+08   2.25673e+08   167546    0.66%
  16214 10746   2.25673e+08    31   2.27174e+08   2.25673e+08   167551    0.66%
  16215 10747   2.25673e+08    31   2.27174e+08   2.25673e+08   167556    0.66%
  16216 10748   2.25673e+08    30   2.27174e+08   2.25673e+08   167559    0.66%
  16217 10749   2.25673e+08    34   2.27174e+08   2.25673e+08   167561    0.66%
  16218 10750   2.25673e+08    29   2.27174e+08   2.25673e+08   167564    0.66%
  16219 10751   2.25673e+08    29   2.27174e+08   2.25673e+08   167566    0.66%
  16220 10752   2.25673e+08    28   2.27174e+08   2.25673e+08   167573    0.66%
Elapsed time = 6.95 sec. (8891.42 ticks, tree = 6.71 MB, solutions = 25)
  17586 11812   2.26104e+08    37   2.27174e+08   2.25673e+08   189589    0.66%
  17587 11813   2.26139e+08    31   2.27174e+08   2.25673e+08   189591    0.66%
  17588 11814   2.26139e+08    29   2.27174e+08   2.25673e+08   189592    0.66%
  17589 11815   2.26287e+08    31   2.27174e+08   2.25673e+08   189597    0.66%
  17590 11816   2.26302e+08    29   2.27174e+08   2.25673e+08   189599    0.66%
  17591 11816   2.26342e+08    33   2.27174e+08   2.25673e+08   189602    0.66%
  17592 11817   2.26342e+08    31   2.27174e+08   2.25673e+08   189604    0.66%
  17593 11818   2.26354e+08    29   2.27174e+08   2.25673e+08   189605    0.66%
  17594 11819   2.26361e+08    29   2.27174e+08   2.25673e+08   189606    0.66%
  21313 14613        cutoff         2.27174e+08   2.25673e+08   258769    0.66%
Elapsed time = 10.04 sec. (12706.19 ticks, tree = 9.00 MB, solutions = 25)
  25216 17665   2.26310e+08    39   2.27174e+08   2.25673e+08   337450    0.66%
  25217 17666   2.26310e+08    36   2.27174e+08   2.25673e+08   337475    0.66%
  25218 17667   2.26310e+08    35   2.27174e+08   2.25673e+08   337476    0.66%
  25219 17668   2.26310e+08    34   2.27174e+08   2.25673e+08   337477    0.66%
  25220 17669   2.26310e+08    35   2.27174e+08   2.25673e+08   337481    0.66%
  25221 17670   2.26310e+08    36   2.27174e+08   2.25673e+08   337486    0.66%
  25222 17671   2.26310e+08    33   2.27174e+08   2.25673e+08   337496    0.66%
  25223 17672   2.26586e+08    27   2.27174e+08   2.25673e+08   337521    0.66%
  25224 17673   2.26505e+08    30   2.27174e+08   2.25673e+08   337549    0.66%
  25225 17672        cutoff         2.27174e+08   2.25673e+08   337551    0.66%
Elapsed time = 12.71 sec. (16535.12 ticks, tree = 11.27 MB, solutions = 25)
  27532 19241   2.25673e+08    28   2.27174e+08   2.25673e+08   413407    0.66%
  27533 19242   2.25673e+08    30   2.27174e+08   2.25673e+08   413413    0.66%
  27534 19243   2.25673e+08    30   2.27174e+08   2.25673e+08   413415    0.66%
  27535 19244   2.25673e+08    30   2.27174e+08   2.25673e+08   413417    0.66%
  27536 19245   2.25673e+08    32   2.27174e+08   2.25673e+08   413437    0.66%
  27537 19246   2.25673e+08    39   2.27174e+08   2.25673e+08   413446    0.66%
  27538 19247   2.25673e+08    37   2.27174e+08   2.25673e+08   413447    0.66%
  27539 19248   2.25673e+08    37   2.27174e+08   2.25673e+08   413448    0.66%
  27540 19249   2.25673e+08    40   2.27174e+08   2.25673e+08   413453    0.66%
  27541 19250   2.25673e+08    40   2.27174e+08   2.25673e+08   413454    0.66%
Elapsed time = 15.38 sec. (20353.14 ticks, tree = 12.21 MB, solutions = 25)
  30134 21338   2.25673e+08    75   2.27174e+08   2.25673e+08   488342    0.66%
  30135 21339   2.25673e+08    76   2.27174e+08   2.25673e+08   488347    0.66%
  30136 21340   2.25673e+08    67   2.27174e+08   2.25673e+08   488360    0.66%
  30137 21341   2.25673e+08    57   2.27174e+08   2.25673e+08   488370    0.66%
  30138 21342   2.25673e+08    53   2.27174e+08   2.25673e+08   488421    0.66%
  30139 21343   2.25673e+08    50   2.27174e+08   2.25673e+08   488430    0.66%
  30140 21344   2.25676e+08    55   2.27174e+08   2.25673e+08   488453    0.66%
  30141 21345   2.25681e+08    58   2.27174e+08   2.25673e+08   488458    0.66%
  30142 21346   2.25682e+08    53   2.27174e+08   2.25673e+08   488462    0.66%
  30143 21345        cutoff         2.27174e+08   2.25673e+08   488511    0.66%
Elapsed time = 18.00 sec. (24185.44 ticks, tree = 13.47 MB, solutions = 25)
  32025 22798   2.26688e+08    58   2.27174e+08   2.25673e+08   557236    0.66%
  32026 22799   2.26692e+08    55   2.27174e+08   2.25673e+08   557240    0.66%
  32027 22800   2.26699e+08    63   2.27174e+08   2.25673e+08   557260    0.66%
  32028 22801   2.26699e+08    62   2.27174e+08   2.25673e+08   557263    0.66%
  32029 22802   2.26700e+08    70   2.27174e+08   2.25673e+08   557275    0.66%
  32030 22803   2.26700e+08    70   2.27174e+08   2.25673e+08   557279    0.66%
  32031 22804   2.26701e+08    54   2.27174e+08   2.25673e+08   557285    0.66%
  32032 22805   2.26701e+08    63   2.27174e+08   2.25673e+08   557287    0.66%
  32033 22806   2.26714e+08    51   2.27174e+08   2.25673e+08   557300    0.66%
  32034 22807   2.26714e+08    52   2.27174e+08   2.25673e+08   557308    0.66%
Elapsed time = 20.59 sec. (28004.89 ticks, tree = 14.37 MB, solutions = 25)
  34276 24355   2.25673e+08    31   2.27174e+08   2.25673e+08   639149    0.66%
  34277 24356   2.25673e+08    31   2.27174e+08   2.25673e+08   639163    0.66%
  34278 24357   2.25673e+08    35   2.27174e+08   2.25673e+08   639185    0.66%
  34279 24358   2.25673e+08    37   2.27174e+08   2.25673e+08   639219    0.66%
  34280 24359   2.25673e+08    37   2.27174e+08   2.25673e+08   639225    0.66%
  34281 24360   2.25673e+08    36   2.27174e+08   2.25673e+08   639226    0.66%
  34282 24361   2.25673e+08    36   2.27174e+08   2.25673e+08   639227    0.66%
  34283 24362   2.25673e+08    36   2.27174e+08   2.25673e+08   639254    0.66%
  34284 24363   2.25673e+08    52   2.27174e+08   2.25673e+08   639367    0.66%
  34285 24364   2.25673e+08    50   2.27174e+08   2.25673e+08   639369    0.66%
Elapsed time = 23.22 sec. (31837.63 ticks, tree = 15.33 MB, solutions = 25)
  35988 25524   2.25673e+08    38   2.27174e+08   2.25673e+08   713377    0.66%
  35989 25525   2.25673e+08    38   2.27174e+08   2.25673e+08   713383    0.66%
  35990 25526   2.25673e+08    37   2.27174e+08   2.25673e+08   713386    0.66%
  35991 25527   2.25673e+08    38   2.27174e+08   2.25673e+08   713389    0.66%
  35992 25528   2.25673e+08    33   2.27174e+08   2.25673e+08   713402    0.66%
  35993 25529   2.25673e+08    35   2.27174e+08   2.25673e+08   713407    0.66%
  35994 25530   2.25673e+08    40   2.27174e+08   2.25673e+08   713423    0.66%
  35995 25531   2.25673e+08    42   2.27174e+08   2.25673e+08   713425    0.66%
  35996 25532   2.25673e+08    40   2.27174e+08   2.25673e+08   713427    0.66%
  35997 25533   2.25673e+08    34   2.27174e+08   2.25673e+08   713431    0.66%
Elapsed time = 26.07 sec. (35655.12 ticks, tree = 17.74 MB, solutions = 25)
  39474 28206    infeasible         2.27174e+08   2.25673e+08   795978    0.66%
  39475 28207   2.25673e+08    24   2.27174e+08   2.25673e+08   795980    0.66%
  39476 28208   2.25673e+08    27   2.27174e+08   2.25673e+08   795991    0.66%
  39477 28209   2.25673e+08    28   2.27174e+08   2.25673e+08   795993    0.66%
  39478 28210   2.25673e+08    26   2.27174e+08   2.25673e+08   795997    0.66%
  39479 28211   2.25673e+08    25   2.27174e+08   2.25673e+08   795999    0.66%
  39480 28212   2.25673e+08    25   2.27174e+08   2.25673e+08   796000    0.66%
  39481 28213   2.25673e+08    29   2.27174e+08   2.25673e+08   796009    0.66%
  39482 28214   2.25673e+08    31   2.27174e+08   2.25673e+08   796023    0.66%
  39483 28213    infeasible         2.27174e+08   2.25673e+08   796073    0.66%
Elapsed time = 28.69 sec. (39475.83 ticks, tree = 20.08 MB, solutions = 25)
  41401 29451   2.25719e+08    71   2.27174e+08   2.25673e+08   876686    0.66%
  41402 29452   2.25719e+08    70   2.27174e+08   2.25673e+08   876688    0.66%
  41403 29451        cutoff         2.27174e+08   2.25673e+08   876841    0.66%
  41404 29452   2.25719e+08    68   2.27174e+08   2.25673e+08   876856    0.66%
  41405 29453   2.25719e+08    74   2.27174e+08   2.25673e+08   876868    0.66%
  41406 29454   2.25719e+08    72   2.27174e+08   2.25673e+08   876869    0.66%
  41407 29455   2.25719e+08    71   2.27174e+08   2.25673e+08   876893    0.66%
  41408 29456   2.25719e+08    70   2.27174e+08   2.25673e+08   876901    0.66%
  41409 29457   2.25719e+08    71   2.27174e+08   2.25673e+08   876930    0.66%
  41410 29458   2.25719e+08    66   2.27174e+08   2.25673e+08   876937    0.66%
Elapsed time = 31.46 sec. (43432.28 ticks, tree = 20.91 MB, solutions = 25)
  43220 30748   2.26282e+08    44   2.27174e+08   2.25673e+08   958758    0.66%
  43221 30749   2.26282e+08    50   2.27174e+08   2.25673e+08   958851    0.66%
  43222 30750   2.26282e+08    48   2.27174e+08   2.25673e+08   958859    0.66%
  43223 30751   2.26282e+08    47   2.27174e+08   2.25673e+08   958863    0.66%
  43224 30752   2.26282e+08    45   2.27174e+08   2.25673e+08   958905    0.66%
  43225 30753   2.26282e+08    40   2.27174e+08   2.25673e+08   958993    0.66%
  43226 30754   2.26282e+08    40   2.27174e+08   2.25673e+08   959008    0.66%
  43227 30755   2.26282e+08    43   2.27174e+08   2.25673e+08   959142    0.66%
  43228 30756   2.26282e+08    41   2.27174e+08   2.25673e+08   959170    0.66%
  43229 30757   2.26282e+08    55   2.27174e+08   2.25673e+08   959265    0.66%
Elapsed time = 34.09 sec. (47265.76 ticks, tree = 21.74 MB, solutions = 25)
* 45201+26882                       2.26640e+08   2.25673e+08             0.43%
* 45401+26798                       2.26618e+08   2.25673e+08             0.42%
  46044 27267   2.25673e+08    51   2.26618e+08   2.25673e+08  1040409    0.42%
  46045 27266    infeasible         2.26618e+08   2.25673e+08  1040409    0.42%
  46046 27267   2.25673e+08    46   2.26618e+08   2.25673e+08  1040414    0.42%
  46047 27268   2.25673e+08    43   2.26618e+08   2.25673e+08  1040417    0.42%
  46048 27269   2.25673e+08    41   2.26618e+08   2.25673e+08  1040418    0.42%
  46049 27268        cutoff         2.26618e+08   2.25673e+08  1041044    0.42%
  46050 27269   2.25673e+08    41   2.26618e+08   2.25673e+08  1041050    0.42%
  46051 27270   2.25673e+08    41   2.26618e+08   2.25673e+08  1041053    0.42%
  46052 27271   2.25673e+08    41   2.26618e+08   2.25673e+08  1041054    0.42%
  46053 27272   2.25673e+08    41   2.26618e+08   2.25673e+08  1041055    0.42%
Elapsed time = 36.85 sec. (51112.02 ticks, tree = 19.34 MB, solutions = 27)
  47780 28292        cutoff         2.26618e+08   2.25673e+08  1120252    0.42%
  47781 28291        cutoff         2.26618e+08   2.25673e+08  1120298    0.42%
  47782 28290        cutoff         2.26618e+08   2.25673e+08  1120597    0.42%
  47783 28291   2.25673e+08    85   2.26618e+08   2.25673e+08  1120849    0.42%
  47784 28292   2.25673e+08    85   2.26618e+08   2.25673e+08  1120852    0.42%
  47785 28291        cutoff         2.26618e+08   2.25673e+08  1121087    0.42%
  47786 28292   2.25673e+08    81   2.26618e+08   2.25673e+08  1121097    0.42%
  47787 28293   2.25673e+08    68   2.26618e+08   2.25673e+08  1121279    0.42%
  47788 28294   2.25673e+08    65   2.26618e+08   2.25673e+08  1121284    0.42%
  47789 28295   2.25673e+08    61   2.26618e+08   2.25673e+08  1121288    0.42%
Elapsed time = 40.64 sec. (54982.23 ticks, tree = 19.98 MB, solutions = 27)
  49175 29140        cutoff         2.26618e+08   2.25673e+08  1195040    0.42%
  49176 29139        cutoff         2.26618e+08   2.25673e+08  1195159    0.42%
  49177 29140   2.25673e+08    88   2.26618e+08   2.25673e+08  1195566    0.42%
  49178 29141   2.25673e+08    80   2.26618e+08   2.25673e+08  1195578    0.42%
  49179 29142   2.25673e+08    79   2.26618e+08   2.25673e+08  1195579    0.42%
  49180 29143   2.25673e+08    78   2.26618e+08   2.25673e+08  1195580    0.42%
  49181 29144   2.25673e+08    73   2.26618e+08   2.25673e+08  1195583    0.42%
  49182 29145   2.25673e+08    71   2.26618e+08   2.25673e+08  1195586    0.42%
  49183 29146   2.25673e+08    66   2.26618e+08   2.25673e+08  1195841    0.42%
  49184 29147   2.25673e+08    60   2.26618e+08   2.25673e+08  1195853    0.42%
Elapsed time = 44.37 sec. (58858.95 ticks, tree = 20.51 MB, solutions = 27)
  51950 31463   2.25673e+08    34   2.26618e+08   2.25673e+08  1274241    0.42%
  51951 31464   2.25673e+08    31   2.26618e+08   2.25673e+08  1274260    0.42%
  51952 31465   2.25673e+08    34   2.26618e+08   2.25673e+08  1274276    0.42%
  51953 31466   2.25673e+08    34   2.26618e+08   2.25673e+08  1274277    0.42%
  51954 31467   2.25673e+08    27   2.26618e+08   2.25673e+08  1274282    0.42%
  51955 31468   2.25673e+08    35   2.26618e+08   2.25673e+08  1274291    0.42%
  51956 31467        cutoff         2.26618e+08   2.25673e+08  1274763    0.42%
  51957 31468   2.26231e+08    46   2.26618e+08   2.25673e+08  1275109    0.42%
  51958 31469   2.26231e+08    39   2.26618e+08   2.25673e+08  1275154    0.42%
  51959 31470   2.26231e+08    41   2.26618e+08   2.25673e+08  1275177    0.42%
Elapsed time = 48.09 sec. (62711.08 ticks, tree = 21.93 MB, solutions = 27)
  54548 33272   2.25673e+08    33   2.26618e+08   2.25673e+08  1356510    0.42%
  54549 33273   2.25673e+08    32   2.26618e+08   2.25673e+08  1356511    0.42%
  54550 33274   2.25673e+08    31   2.26618e+08   2.25673e+08  1356536    0.42%
  54551 33275   2.25673e+08    30   2.26618e+08   2.25673e+08  1356541    0.42%
  54552 33276   2.25673e+08    30   2.26618e+08   2.25673e+08  1356558    0.42%
  54553 33277   2.25673e+08    30   2.26618e+08   2.25673e+08  1356559    0.42%
  54554 33278   2.25673e+08    31   2.26618e+08   2.25673e+08  1356564    0.42%
  54555 33279   2.25673e+08    31   2.26618e+08   2.25673e+08  1356566    0.42%
  54556 33280   2.25673e+08    31   2.26618e+08   2.25673e+08  1356567    0.42%
  54557 33281   2.25673e+08    32   2.26618e+08   2.25673e+08  1356600    0.42%
Elapsed time = 51.78 sec. (66529.90 ticks, tree = 24.23 MB, solutions = 27)
  56700 34639   2.25673e+08    95   2.26618e+08   2.25673e+08  1434505    0.42%
  56701 34638        cutoff         2.26618e+08   2.25673e+08  1434761    0.42%
  56702 34639   2.25673e+08    82   2.26618e+08   2.25673e+08  1434778    0.42%
  56703 34640   2.25673e+08    65   2.26618e+08   2.25673e+08  1434813    0.42%
  56704 34641   2.25673e+08    58   2.26618e+08   2.25673e+08  1434881    0.42%
  56705 34642   2.26562e+08    61   2.26618e+08   2.25673e+08  1435054    0.42%
  56706 34641        cutoff         2.26618e+08   2.25673e+08  1435063    0.42%
  56707 34640        cutoff         2.26618e+08   2.25673e+08  1435064    0.42%
  56708 34639        cutoff         2.26618e+08   2.25673e+08  1435419    0.42%
  56709 34638        cutoff         2.26618e+08   2.25673e+08  1435541    0.42%
Elapsed time = 55.53 sec. (70394.72 ticks, tree = 25.09 MB, solutions = 27)
  59284 36092   2.25673e+08    40   2.26618e+08   2.25673e+08  1519949    0.42%
  59285 36093   2.25673e+08    39   2.26618e+08   2.25673e+08  1519952    0.42%
  59286 36094   2.25673e+08    36   2.26618e+08   2.25673e+08  1519983    0.42%
  59287 36095   2.25673e+08    32   2.26618e+08   2.25673e+08  1519985    0.42%
  59288 36096   2.25673e+08    33   2.26618e+08   2.25673e+08  1519987    0.42%
  59289 36097   2.25673e+08    36   2.26618e+08   2.25673e+08  1519990    0.42%
  59290 36098   2.25673e+08    35   2.26618e+08   2.25673e+08  1519993    0.42%
  59291 36099   2.25673e+08    35   2.26618e+08   2.25673e+08  1519995    0.42%
  59292 36100   2.25673e+08    35   2.26618e+08   2.25673e+08  1519997    0.42%
  59293 36101   2.25673e+08    35   2.26618e+08   2.25673e+08  1519999    0.42%
Elapsed time = 59.21 sec. (74213.81 ticks, tree = 26.00 MB, solutions = 27)
  62328 38116   2.25673e+08    55   2.26618e+08   2.25673e+08  1602421    0.42%
  62329 38115        cutoff         2.26618e+08   2.25673e+08  1602575    0.42%
  62330 38116   2.25673e+08    54   2.26618e+08   2.25673e+08  1602688    0.42%
  62331 38117   2.25673e+08    49   2.26618e+08   2.25673e+08  1602718    0.42%
  62332 38118   2.25673e+08    49   2.26618e+08   2.25673e+08  1602837    0.42%
  62333 38119   2.25673e+08    48   2.26618e+08   2.25673e+08  1602843    0.42%
  62334 38120   2.25673e+08    48   2.26618e+08   2.25673e+08  1602844    0.42%
  62335 38121   2.25673e+08    45   2.26618e+08   2.25673e+08  1602889    0.42%
  62336 38122   2.25673e+08    43   2.26618e+08   2.25673e+08  1602905    0.42%
  62337 38123   2.25673e+08    45   2.26618e+08   2.25673e+08  1602927    0.42%
Elapsed time = 62.84 sec. (78057.28 ticks, tree = 27.28 MB, solutions = 27)
  66323 41388   2.26531e+08    32   2.26618e+08   2.25673e+08  1675164    0.42%
  66324 41387        cutoff         2.26618e+08   2.25673e+08  1675166    0.42%
  66325 41386        cutoff         2.26618e+08   2.25673e+08  1675209    0.42%
  66326 41387   2.25673e+08    27   2.26618e+08   2.25673e+08  1675254    0.42%
  66327 41386    infeasible         2.26618e+08   2.25673e+08  1675254    0.42%
  66328 41385        cutoff         2.26618e+08   2.25673e+08  1675321    0.42%
  66329 41386   2.25673e+08    24   2.26618e+08   2.25673e+08  1675342    0.42%
  66330 41387   2.25673e+08    25   2.26618e+08   2.25673e+08  1675349    0.42%
  66331 41388   2.25673e+08    25   2.26618e+08   2.25673e+08  1675365    0.42%
  66332 41389   2.25673e+08    23   2.26618e+08   2.25673e+08  1675371    0.42%
Elapsed time = 66.42 sec. (81884.50 ticks, tree = 29.34 MB, solutions = 27)
  71614 44957    infeasible         2.26618e+08   2.25673e+08  1767263    0.42%
  71615 44958   2.25679e+08    37   2.26618e+08   2.25673e+08  1767266    0.42%
  71616 44959   2.25713e+08    34   2.26618e+08   2.25673e+08  1767274    0.42%
  71617 44958        cutoff         2.26618e+08   2.25673e+08  1767286    0.42%
  71618 44957        cutoff         2.26618e+08   2.25673e+08  1767288    0.42%
  71619 44958   2.25673e+08    22   2.26618e+08   2.25673e+08  1767308    0.42%
  71620 44959   2.25827e+08    36   2.26618e+08   2.25673e+08  1767382    0.42%
  71621 44958        cutoff         2.26618e+08   2.25673e+08  1767393    0.42%
  71622 44957        cutoff         2.26618e+08   2.25673e+08  1767400    0.42%
  71623 44956        cutoff         2.26618e+08   2.25673e+08  1767504    0.42%
Elapsed time = 69.97 sec. (85708.43 ticks, tree = 31.69 MB, solutions = 27)
  76901 48648   2.25820e+08    34   2.26618e+08   2.25673e+08  1858894    0.42%
  76902 48649   2.25820e+08    33   2.26618e+08   2.25673e+08  1858896    0.42%
  76903 48650   2.25820e+08    35   2.26618e+08   2.25673e+08  1858900    0.42%
  76904 48649   2.26611e+08    31   2.26618e+08   2.25673e+08  1858913    0.42%
  76905 48648        cutoff         2.26618e+08   2.25673e+08  1858921    0.42%
  76906 48649   2.25928e+08    26   2.26618e+08   2.25673e+08  1859134    0.42%
  76907 48650   2.25928e+08    28   2.26618e+08   2.25673e+08  1859142    0.42%
  76908 48651   2.25928e+08    26   2.26618e+08   2.25673e+08  1859145    0.42%
  76909 48652   2.25928e+08    24   2.26618e+08   2.25673e+08  1859158    0.42%
  76910 48653   2.26043e+08    31   2.26618e+08   2.25673e+08  1859219    0.42%
Elapsed time = 73.56 sec. (89556.42 ticks, tree = 34.12 MB, solutions = 27)
  81596 51775        cutoff         2.26618e+08   2.25673e+08  1946420    0.42%
  81597 51774        cutoff         2.26618e+08   2.25673e+08  1946434    0.42%
  81598 51774   2.26221e+08    29   2.26618e+08   2.25673e+08  1946665    0.42%
  81599 51773        cutoff         2.26618e+08   2.25673e+08  1946669    0.42%
  81600 51772    infeasible         2.26618e+08   2.25673e+08  1946669    0.42%
  81601 51773   2.25673e+08    23   2.26618e+08   2.25673e+08  1946686    0.42%
  81602 51772        cutoff         2.26618e+08   2.25673e+08  1946898    0.42%
  81603 51771   2.26424e+08    36   2.26618e+08   2.25673e+08  1947016    0.42%
  81604 51770        cutoff         2.26618e+08   2.25673e+08  1947167    0.42%
  81605 51771   2.25673e+08    28   2.26618e+08   2.25673e+08  1947247    0.42%
Elapsed time = 77.10 sec. (93400.65 ticks, tree = 36.14 MB, solutions = 27)
  86143 54426   2.25820e+08    30   2.26618e+08   2.25673e+08  2041001    0.42%
  86144 54427   2.25820e+08    31   2.26618e+08   2.25673e+08  2041002    0.42%
  86145 54428   2.25820e+08    31   2.26618e+08   2.25673e+08  2041003    0.42%
  86146 54428   2.25820e+08    30   2.26618e+08   2.25673e+08  2041005    0.42%
  86147 54428   2.25820e+08    31   2.26618e+08   2.25673e+08  2041006    0.42%
  86148 54429   2.26494e+08    28   2.26618e+08   2.25673e+08  2041016    0.42%
  86149 54429   2.26494e+08    29   2.26618e+08   2.25673e+08  2041020    0.42%
  86150 54429   2.26494e+08    29   2.26618e+08   2.25673e+08  2041021    0.42%
  86151 54428   2.26494e+08    29   2.26618e+08   2.25673e+08  2041024    0.42%
  86152 54427        cutoff         2.26618e+08   2.25673e+08  2041122    0.42%
Elapsed time = 80.74 sec. (97221.04 ticks, tree = 37.89 MB, solutions = 27)
  90401 56526   2.25673e+08    22   2.26618e+08   2.25673e+08  2134175    0.42%
  90402 56527   2.25673e+08    23   2.26618e+08   2.25673e+08  2134183    0.42%
  90403 56528   2.25673e+08    22   2.26618e+08   2.25673e+08  2134189    0.42%
  90404 56529   2.25673e+08    22   2.26618e+08   2.25673e+08  2134194    0.42%
  90405 56530   2.25673e+08    21   2.26618e+08   2.25673e+08  2134197    0.42%
  90406 56531   2.25673e+08    20   2.26618e+08   2.25673e+08  2134199    0.42%
  90407 56532   2.25673e+08    22   2.26618e+08   2.25673e+08  2134207    0.42%
  90408 56533   2.25673e+08    26   2.26618e+08   2.25673e+08  2134237    0.42%
  90409 56534   2.25673e+08    31   2.26618e+08   2.25673e+08  2134292    0.42%
  90410 56535   2.25673e+08    32   2.26618e+08   2.25673e+08  2134311    0.42%
Elapsed time = 84.40 sec. (101135.79 ticks, tree = 39.29 MB, solutions = 27)
  95062 59551   2.25673e+08    24   2.26618e+08   2.25673e+08  2224270    0.42%
  95063 59552   2.25673e+08    30   2.26618e+08   2.25673e+08  2224301    0.42%
  95064 59553   2.25673e+08    30   2.26618e+08   2.25673e+08  2224302    0.42%
  95065 59554   2.25673e+08    27   2.26618e+08   2.25673e+08  2224313    0.42%
  95066 59555   2.25673e+08    25   2.26618e+08   2.25673e+08  2224315    0.42%
  95067 59556   2.25673e+08    25   2.26618e+08   2.25673e+08  2224322    0.42%
  95068 59557   2.25673e+08    24   2.26618e+08   2.25673e+08  2224325    0.42%
  95069 59558   2.25673e+08    25   2.26618e+08   2.25673e+08  2224329    0.42%
  95070 59559   2.25673e+08    26   2.26618e+08   2.25673e+08  2224332    0.42%
  95071 59560   2.25673e+08    25   2.26618e+08   2.25673e+08  2224334    0.42%
Elapsed time = 87.98 sec. (104954.01 ticks, tree = 41.26 MB, solutions = 27)
  99401 62228   2.25673e+08    25   2.26618e+08   2.25673e+08  2305198    0.42%
  99402 62229   2.25673e+08    24   2.26618e+08   2.25673e+08  2305200    0.42%
  99403 62230   2.26054e+08    35   2.26618e+08   2.25673e+08  2305339    0.42%
  99404 62229        cutoff         2.26618e+08   2.25673e+08  2305345    0.42%
  99405 62228    infeasible         2.26618e+08   2.25673e+08  2305345    0.42%
  99406 62227        cutoff         2.26618e+08   2.25673e+08  2305368    0.42%
  99407 62226    infeasible         2.26618e+08   2.25673e+08  2305368    0.42%
  99408 62227   2.25673e+08    26   2.26618e+08   2.25673e+08  2305371    0.42%
  99409 62228   2.25673e+08    26   2.26618e+08   2.25673e+08  2305372    0.42%
  99410 62229   2.25673e+08    23   2.26618e+08   2.25673e+08  2305376    0.42%
Elapsed time = 91.65 sec. (109030.23 ticks, tree = 43.01 MB, solutions = 27)
 101901 63591   2.25673e+08    31   2.26618e+08   2.25673e+08  2350190    0.42%
 101902 63592   2.25740e+08    31   2.26618e+08   2.25673e+08  2350278    0.42%
 101903 63591        cutoff         2.26618e+08   2.25673e+08  2350286    0.42%
 101904 63590        cutoff         2.26618e+08   2.25673e+08  2350288    0.42%
 101905 63589    infeasible         2.26618e+08   2.25673e+08  2350349    0.42%
 101906 63590   2.25673e+08    26   2.26618e+08   2.25673e+08  2350369    0.42%
 101907 63591   2.25673e+08    32   2.26618e+08   2.25673e+08  2350397    0.42%
 101908 63592   2.25673e+08    33   2.26618e+08   2.25673e+08  2350440    0.42%
 101909 63593   2.25673e+08    30   2.26618e+08   2.25673e+08  2350441    0.42%
 101910 63593   2.26262e+08    34   2.26618e+08   2.25673e+08  2350556    0.42%
Elapsed time = 95.15 sec. (112957.10 ticks, tree = 43.91 MB, solutions = 27)
 104476 64753   2.26605e+08    36   2.26618e+08   2.25673e+08  2415042    0.42%
 104477 64754   2.25673e+08    31   2.26618e+08   2.25673e+08  2415117    0.42%
 104478 64755   2.25673e+08    31   2.26618e+08   2.25673e+08  2415118    0.42%
 104479 64754        cutoff         2.26618e+08   2.25673e+08  2415228    0.42%
 104480 64753        cutoff         2.26618e+08   2.25673e+08  2415319    0.42%
 104481 64754   2.25692e+08    37   2.26618e+08   2.25673e+08  2415584    0.42%
 104482 64755   2.25692e+08    36   2.26618e+08   2.25673e+08  2415596    0.42%
 104483 64754   2.26511e+08    29   2.26618e+08   2.25673e+08  2415676    0.42%
 104484 64753        cutoff         2.26618e+08   2.25673e+08  2415697    0.42%
 104485 64754   2.25673e+08    23   2.26618e+08   2.25673e+08  2415710    0.42%
Elapsed time = 98.63 sec. (116796.53 ticks, tree = 44.68 MB, solutions = 27)

Cover cuts applied:  461
Mixed integer rounding cuts applied:  10
Gomory fractional cuts applied:  8

Root node processing (before b&c):
  Real time             =    0.05 sec. (55.65 ticks)
Sequential b&c:
  Real time             =   99.95 sec. (118157.52 ticks)
                          ------------
Total (root+branch&cut) =  100.00 sec. (118213.17 ticks)

Solution pool: 27 solutions saved.

MIP - Time limit exceeded, integer feasible:  Objective =  2.2661759200e+08
Current MIP best bound =  2.2567326400e+08 (gap = 944328, 0.42%)
Solution time =  100.00 sec.  Iterations = 2451710  Nodes = 105596 (65075)
Deterministic time = 118213.18 ticks  (1182.13 ticks/sec)


Incumbent solution written to file '/tmp/tmplYB65J.cplex.sol'.
